/**********************************************
* Author: Adrien BLASSIAU Corentin JUVIGNY
* Creation Date: Thu, 19 Mar 2020 01:21:40
*********************************************/

T=12;
M=8;
R=7;
Emax=[5, 5, 5, 5, 5, 5, 5, 5, 5, 5, 5, 5];
f=[[10, 30, 60, 90, 120, 150, 180, 210],[10, 30, 60, 90, 120, 150, 180, 210],[10, 30, 60, 90, 120, 150, 180, 210],[10, 30, 60, 90, 120, 150, 180, 210],[10, 30, 60, 90, 120, 150, 180, 210],[10, 30, 60, 90, 120, 150, 180, 210],[10, 30, 60, 90, 120, 150, 180, 210],[10, 30, 60, 90, 120, 150, 180, 210],[10, 30, 60, 90, 120, 150, 180, 210],[10, 30, 60, 90, 120, 150, 180, 210],[10, 30, 60, 90, 120, 150, 180, 210],[10, 30, 60, 90, 120, 150, 180, 210]];
e=[[8, 7, 6, 5, 4, 3, 2, 1],[8, 7, 6, 5, 4, 3, 2, 1],[8, 7, 6, 5, 4, 3, 2, 1],[8, 7, 6, 5, 4, 3, 2, 1],[8, 7, 6, 5, 4, 3, 2, 1],[8, 7, 6, 5, 4, 3, 2, 1],[8, 7, 6, 5, 4, 3, 2, 1],[8, 7, 6, 5, 4, 3, 2, 1],[8, 7, 6, 5, 4, 3, 2, 1],[8, 7, 6, 5, 4, 3, 2, 1],[8, 7, 6, 5, 4, 3, 2, 1],[8, 7, 6, 5, 4, 3, 2, 1]];
h=[1, 1, 1, 1, 1, 1, 1, 1, 1, 1, 1, 1];
p=[[0, 0, 0, 0, 0, 0, 0, 0],[0, 0, 0, 0, 0, 0, 0, 0],[0, 0, 0, 0, 0, 0, 0, 0],[0, 0, 0, 0, 0, 0, 0, 0],[0, 0, 0, 0, 0, 0, 0, 0],[0, 0, 0, 0, 0, 0, 0, 0],[0, 0, 0, 0, 0, 0, 0, 0],[0, 0, 0, 0, 0, 0, 0, 0],[0, 0, 0, 0, 0, 0, 0, 0],[0, 0, 0, 0, 0, 0, 0, 0],[0, 0, 0, 0, 0, 0, 0, 0],[0, 0, 0, 0, 0, 0, 0, 0]];
d=[48, 34, 35, 69, 43, 70, 45, 62, 41, 25, 37, 46];
